param n := 2;

param m := 5;

param K := 500;

param a :=
1 	 0.098743
2 	 0.651304
;
 param A :=
[1, *, *]:  1	2	:=
1	0.407034	0.599231	
2	0.220482	-0.930858	

[2, *, *]:  1	2	:=
1	0.540477	-0.480603	
2	0.463457	-0.485861	

[3, *, *]:  1	2	:=
1	0.264607	0.593177	
2	-0.309405	-0.107708	

[4, *, *]:  1	2	:=
1	0.565499	-0.399503	
2	0.980944	-0.713988	

[5, *, *]:  1	2	:=
1	0.802617	0.949481	
2	0.083119	0.273209	
;